(set-info :smt-lib-version 2.6)
(set-logic LIA)
(set-info :source "|
Generated by the tool Ultimate Automizer [1,2] which implements
an automata theoretic approach [3] to software verification.

This SMT script belongs to a set of SMT scripts that was generated by
applying Ultimate Automizer to benchmarks [4] from the SV-COMP 2019 [5,6].
This script might _not_ contain all SMT commands that are used by
Ultimate Automizer. In order to satisfy the restrictions of
the SMT-COMP we have to drop e.g., the commands for getting
values (resp. models), unsatisfiable cores and interpolants.

2019-04-27, Matthias Heizmann (heizmann@informatik.uni-freiburg.de)

[1] https://ultimate.informatik.uni-freiburg.de/automizer/
[2] Matthias Heizmann, Yu-Fang Chen, Daniel Dietsch, Marius Greitschus,
     Jochen Hoenicke, Yong Li, Alexander Nutz, Betim Musa, Christian
     Schilling, Tanja Schindler, Andreas Podelski: Ultimate Automizer
     and the Search for Perfect Interpolants - (Competition Contribution).
     TACAS (2) 2018: 447-451
[3] Matthias Heizmann, Jochen Hoenicke, Andreas Podelski: Software Model
     Checking for People Who Love Automata. CAV 2013:36-52
[4] https://github.com/sosy-lab/sv-benchmarks
[5] Dirk Beyer: Automatic Verification of C and Java Programs: SV-COMP 2019.
     TACAS (3) 2019: 133-155
[6] https://sv-comp.sosy-lab.org/2019/
|")
(set-info :license "https://creativecommons.org/licenses/by/4.0/")
(set-info :category "industrial")
(set-info :status unknown)
(declare-fun c_~a4~0 () Int)
(assert (and (or (exists ((v_~a4~0_871 Int)) (let ((.cse2 (mod v_~a4~0_871 21))) (let ((.cse0 (* 9 .cse2))) (let ((.cse1 (div (+ .cse0 (- 621)) 10))) (and (= 0 (mod (+ .cse0 9) 10)) (<= 0 .cse1) (not (= 0 .cse2)) (= (mod (+ .cse1 1) 5) 0) (< v_~a4~0_871 0) (<= (+ v_~a4~0_871 86) 0) (<= (div .cse1 5) (+ c_~a4~0 43))))))) (exists ((v_~a4~0_871 Int)) (let ((.cse4 (* 9 (mod v_~a4~0_871 21)))) (let ((.cse3 (div (+ .cse4 (- 432)) 10))) (let ((.cse5 (+ .cse3 1))) (and (< .cse3 0) (= (mod (+ .cse4 8) 10) 0) (<= 0 v_~a4~0_871) (< .cse5 0) (not (= 0 (mod .cse5 5))) (<= (+ v_~a4~0_871 86) 0) (<= (div .cse3 5) (+ c_~a4~0 42)) (not (= 0 (mod .cse3 5)))))))) (exists ((v_~a4~0_871 Int)) (let ((.cse9 (mod v_~a4~0_871 21))) (let ((.cse7 (* 9 .cse9))) (let ((.cse6 (div (+ .cse7 (- 432)) 10))) (let ((.cse8 (+ .cse6 1))) (and (<= (div .cse6 5) (+ c_~a4~0 43)) (= (mod (+ .cse7 8) 10) 0) (<= 0 .cse6) (< .cse8 0) (= 0 .cse9) (not (= 0 (mod .cse8 5))) (<= (+ v_~a4~0_871 86) 0))))))) (exists ((v_~a4~0_871 Int)) (let ((.cse12 (mod v_~a4~0_871 21))) (let ((.cse11 (* 9 .cse12))) (let ((.cse10 (div (+ .cse11 (- 432)) 10))) (and (<= (div .cse10 5) (+ c_~a4~0 43)) (<= 0 .cse10) (<= 432 .cse11) (= 0 .cse12) (= 0 (mod (+ .cse10 1) 5)) (<= (+ v_~a4~0_871 86) 0)))))) (exists ((v_~a4~0_871 Int)) (let ((.cse16 (mod v_~a4~0_871 21))) (let ((.cse15 (* 9 .cse16))) (let ((.cse14 (div (+ .cse15 (- 621)) 10))) (let ((.cse13 (+ .cse14 1))) (and (<= (div .cse13 5) (+ c_~a4~0 43)) (= 0 (mod .cse14 5)) (< .cse15 621) (not (= 0 .cse16)) (not (= 0 (mod (+ .cse15 9) 10))) (= (mod .cse13 5) 0) (< v_~a4~0_871 0) (<= (+ v_~a4~0_871 86) 0))))))) (exists ((v_~a4~0_871 Int)) (let ((.cse17 (* 9 (mod v_~a4~0_871 21)))) (let ((.cse18 (div (+ .cse17 (- 432)) 10))) (let ((.cse19 (+ .cse18 1))) (and (not (= (mod (+ .cse17 8) 10) 0)) (< .cse17 432) (<= 0 v_~a4~0_871) (<= 0 .cse18) (<= (div .cse19 5) (+ c_~a4~0 43)) (= 0 (mod .cse19 5)) (<= (+ v_~a4~0_871 86) 0)))))) (exists ((v_~a4~0_871 Int)) (let ((.cse21 (* 9 (mod v_~a4~0_871 21)))) (let ((.cse20 (div (+ .cse21 (- 432)) 10))) (and (< .cse20 0) (= (mod (+ .cse21 8) 10) 0) (<= 0 v_~a4~0_871) (<= (+ v_~a4~0_871 86) 0) (<= (div .cse20 5) (+ c_~a4~0 42)) (<= 0 (+ .cse20 1)) (not (= 0 (mod .cse20 5))))))) (exists ((v_~a4~0_871 Int)) (let ((.cse23 (mod v_~a4~0_871 21))) (let ((.cse24 (* 9 .cse23))) (let ((.cse22 (div (+ .cse24 (- 621)) 10))) (and (= 0 (mod .cse22 5)) (not (= 0 .cse23)) (= (mod (+ .cse22 1) 5) 0) (< v_~a4~0_871 0) (<= (+ v_~a4~0_871 86) 0) (<= 621 .cse24) (<= (div .cse22 5) (+ c_~a4~0 43))))))) (exists ((v_~a4~0_871 Int)) (let ((.cse26 (* 9 (mod v_~a4~0_871 21)))) (let ((.cse25 (div (+ .cse26 (- 432)) 10))) (let ((.cse27 (+ .cse25 1))) (and (< .cse25 0) (not (= (mod (+ .cse26 8) 10) 0)) (<= (div .cse27 5) (+ c_~a4~0 42)) (< .cse26 432) (<= 0 v_~a4~0_871) (< .cse27 0) (not (= 0 (mod .cse27 5))) (<= (+ v_~a4~0_871 86) 0) (not (= 0 (mod .cse25 5)))))))) (exists ((v_~a4~0_871 Int)) (let ((.cse28 (* 9 (mod v_~a4~0_871 21)))) (let ((.cse29 (div (+ .cse28 (- 432)) 10))) (let ((.cse30 (+ .cse29 1))) (and (not (= (mod (+ .cse28 8) 10) 0)) (< .cse28 432) (<= 0 v_~a4~0_871) (= 0 (mod .cse29 5)) (<= (div .cse30 5) (+ c_~a4~0 43)) (<= (+ v_~a4~0_871 86) 0) (<= 0 .cse30)))))) (exists ((v_~a4~0_871 Int)) (let ((.cse33 (* 9 (mod v_~a4~0_871 21)))) (let ((.cse31 (div (+ .cse33 (- 432)) 10))) (let ((.cse32 (+ .cse31 1))) (and (<= (div .cse31 5) (+ c_~a4~0 43)) (<= 0 v_~a4~0_871) (= 0 (mod .cse31 5)) (< .cse32 0) (<= 432 .cse33) (not (= 0 (mod .cse32 5))) (<= (+ v_~a4~0_871 86) 0)))))) (exists ((v_~a4~0_871 Int)) (let ((.cse35 (* 9 (mod v_~a4~0_871 21)))) (let ((.cse34 (div (+ .cse35 (- 432)) 10))) (and (<= (div .cse34 5) (+ c_~a4~0 43)) (<= 0 v_~a4~0_871) (= 0 (mod .cse34 5)) (<= 432 .cse35) (= 0 (mod (+ .cse34 1) 5)) (<= (+ v_~a4~0_871 86) 0))))) (exists ((v_~a4~0_871 Int)) (let ((.cse39 (mod v_~a4~0_871 21))) (let ((.cse37 (* 9 .cse39))) (let ((.cse36 (div (+ .cse37 (- 432)) 10))) (let ((.cse38 (+ .cse36 1))) (and (< .cse36 0) (= (mod (+ .cse37 8) 10) 0) (< .cse38 0) (= 0 .cse39) (not (= 0 (mod .cse38 5))) (<= (+ v_~a4~0_871 86) 0) (<= (div .cse36 5) (+ c_~a4~0 42)) (not (= 0 (mod .cse36 5))))))))) (exists ((v_~a4~0_871 Int)) (let ((.cse43 (mod v_~a4~0_871 21))) (let ((.cse42 (* 9 .cse43))) (let ((.cse40 (div (+ .cse42 (- 432)) 10))) (let ((.cse41 (+ .cse40 1))) (and (< .cse40 0) (< .cse41 0) (<= 432 .cse42) (= 0 .cse43) (not (= 0 (mod .cse41 5))) (<= (+ v_~a4~0_871 86) 0) (<= (div .cse40 5) (+ c_~a4~0 42)) (not (= 0 (mod .cse40 5))))))))) (exists ((v_~a4~0_871 Int)) (let ((.cse47 (mod v_~a4~0_871 21))) (let ((.cse46 (* 9 .cse47))) (let ((.cse44 (div (+ .cse46 (- 432)) 10))) (let ((.cse45 (+ .cse44 1))) (and (<= (div .cse44 5) (+ c_~a4~0 43)) (= 0 (mod .cse44 5)) (< .cse45 0) (<= 432 .cse46) (= 0 .cse47) (not (= 0 (mod .cse45 5))) (<= (+ v_~a4~0_871 86) 0))))))) (exists ((v_~a4~0_871 Int)) (let ((.cse51 (mod v_~a4~0_871 21))) (let ((.cse48 (* 9 .cse51))) (let ((.cse50 (div (+ .cse48 (- 432)) 10))) (let ((.cse49 (+ .cse50 1))) (and (not (= (mod (+ .cse48 8) 10) 0)) (<= (div .cse49 5) (+ c_~a4~0 42)) (< .cse48 432) (= 0 (mod .cse50 5)) (< .cse49 0) (= 0 .cse51) (not (= 0 (mod .cse49 5))) (<= (+ v_~a4~0_871 86) 0))))))) (exists ((v_~a4~0_871 Int)) (let ((.cse55 (mod v_~a4~0_871 21))) (let ((.cse53 (* 9 .cse55))) (let ((.cse52 (div (+ .cse53 (- 432)) 10))) (let ((.cse54 (+ .cse52 1))) (and (< .cse52 0) (not (= (mod (+ .cse53 8) 10) 0)) (<= (div .cse54 5) (+ c_~a4~0 42)) (< .cse53 432) (< .cse54 0) (= 0 .cse55) (not (= 0 (mod .cse54 5))) (<= (+ v_~a4~0_871 86) 0) (not (= 0 (mod .cse52 5))))))))) (exists ((v_~a4~0_871 Int)) (let ((.cse59 (mod v_~a4~0_871 21))) (let ((.cse56 (* 9 .cse59))) (let ((.cse57 (div (+ .cse56 (- 621)) 10))) (let ((.cse58 (+ .cse57 1))) (and (= 0 (mod (+ .cse56 9) 10)) (= 0 (mod .cse57 5)) (not (= (mod .cse58 5) 0)) (not (= 0 .cse59)) (< .cse58 0) (< v_~a4~0_871 0) (<= (+ v_~a4~0_871 86) 0) (<= (div .cse57 5) (+ c_~a4~0 43)))))))) (exists ((v_~a4~0_871 Int)) (let ((.cse61 (* 9 (mod v_~a4~0_871 21)))) (let ((.cse60 (div (+ .cse61 (- 432)) 10))) (and (< .cse60 0) (<= 0 v_~a4~0_871) (<= 432 .cse61) (= 0 (mod (+ .cse60 1) 5)) (<= (+ v_~a4~0_871 86) 0) (<= (div .cse60 5) (+ c_~a4~0 42)) (not (= 0 (mod .cse60 5))))))) (exists ((v_~a4~0_871 Int)) (let ((.cse64 (mod v_~a4~0_871 21))) (let ((.cse63 (* 9 .cse64))) (let ((.cse62 (div (+ .cse63 (- 432)) 10))) (and (<= (div .cse62 5) (+ c_~a4~0 43)) (= (mod (+ .cse63 8) 10) 0) (= 0 (mod .cse62 5)) (= 0 .cse64) (<= (+ v_~a4~0_871 86) 0) (<= 0 (+ .cse62 1))))))) (exists ((v_~a4~0_871 Int)) (let ((.cse68 (mod v_~a4~0_871 21))) (let ((.cse66 (* 9 .cse68))) (let ((.cse65 (div (+ .cse66 (- 432)) 10))) (let ((.cse67 (+ .cse65 1))) (and (<= (div .cse65 5) (+ c_~a4~0 43)) (= (mod (+ .cse66 8) 10) 0) (= 0 (mod .cse65 5)) (< .cse67 0) (= 0 .cse68) (not (= 0 (mod .cse67 5))) (<= (+ v_~a4~0_871 86) 0))))))) (exists ((v_~a4~0_871 Int)) (let ((.cse69 (* 9 (mod v_~a4~0_871 21)))) (let ((.cse71 (div (+ .cse69 (- 432)) 10))) (let ((.cse70 (+ .cse71 1))) (and (not (= (mod (+ .cse69 8) 10) 0)) (<= (div .cse70 5) (+ c_~a4~0 42)) (< .cse69 432) (<= 0 v_~a4~0_871) (<= 0 .cse71) (< .cse70 0) (not (= 0 (mod .cse70 5))) (<= (+ v_~a4~0_871 86) 0)))))) (exists ((v_~a4~0_871 Int)) (let ((.cse75 (mod v_~a4~0_871 21))) (let ((.cse73 (* 9 .cse75))) (let ((.cse72 (div (+ .cse73 (- 621)) 10))) (let ((.cse74 (+ .cse72 1))) (and (= 0 (mod .cse72 5)) (< .cse73 621) (not (= (mod .cse74 5) 0)) (not (= 0 .cse75)) (<= (div .cse74 5) (+ c_~a4~0 42)) (< .cse74 0) (not (= 0 (mod (+ .cse73 9) 10))) (< v_~a4~0_871 0) (<= (+ v_~a4~0_871 86) 0))))))) (exists ((v_~a4~0_871 Int)) (let ((.cse77 (* 9 (mod v_~a4~0_871 21)))) (let ((.cse76 (div (+ .cse77 (- 432)) 10))) (let ((.cse78 (+ .cse76 1))) (and (<= (div .cse76 5) (+ c_~a4~0 43)) (= (mod (+ .cse77 8) 10) 0) (<= 0 v_~a4~0_871) (<= 0 .cse76) (< .cse78 0) (not (= 0 (mod .cse78 5))) (<= (+ v_~a4~0_871 86) 0)))))) (exists ((v_~a4~0_871 Int)) (let ((.cse82 (mod v_~a4~0_871 21))) (let ((.cse79 (* 9 .cse82))) (let ((.cse80 (div (+ .cse79 (- 432)) 10))) (let ((.cse81 (+ .cse80 1))) (and (not (= (mod (+ .cse79 8) 10) 0)) (< .cse79 432) (<= 0 .cse80) (<= (div .cse81 5) (+ c_~a4~0 43)) (= 0 .cse82) (= 0 (mod .cse81 5)) (<= (+ v_~a4~0_871 86) 0))))))) (exists ((v_~a4~0_871 Int)) (let ((.cse84 (* 9 (mod v_~a4~0_871 21)))) (let ((.cse83 (div (+ .cse84 (- 432)) 10))) (and (<= (div .cse83 5) (+ c_~a4~0 43)) (<= 0 v_~a4~0_871) (= 0 (mod .cse83 5)) (<= 432 .cse84) (<= (+ v_~a4~0_871 86) 0) (<= 0 (+ .cse83 1)))))) (exists ((v_~a4~0_871 Int)) (let ((.cse86 (* 9 (mod v_~a4~0_871 21)))) (let ((.cse85 (div (+ .cse86 (- 432)) 10))) (and (<= (div .cse85 5) (+ c_~a4~0 43)) (= (mod (+ .cse86 8) 10) 0) (<= 0 v_~a4~0_871) (<= 0 .cse85) (= 0 (mod (+ .cse85 1) 5)) (<= (+ v_~a4~0_871 86) 0))))) (exists ((v_~a4~0_871 Int)) (let ((.cse90 (mod v_~a4~0_871 21))) (let ((.cse89 (* 9 .cse90))) (let ((.cse88 (div (+ .cse89 (- 621)) 10))) (let ((.cse87 (+ .cse88 1))) (and (<= (div .cse87 5) (+ c_~a4~0 43)) (<= 0 .cse88) (< .cse89 621) (not (= 0 .cse90)) (not (= 0 (mod (+ .cse89 9) 10))) (= (mod .cse87 5) 0) (< v_~a4~0_871 0) (<= (+ v_~a4~0_871 86) 0))))))) (exists ((v_~a4~0_871 Int)) (let ((.cse92 (mod v_~a4~0_871 21))) (let ((.cse91 (* 9 .cse92))) (let ((.cse93 (div (+ .cse91 (- 621)) 10))) (and (= 0 (mod (+ .cse91 9) 10)) (not (= 0 .cse92)) (not (= 0 (mod .cse93 5))) (< .cse93 0) (= (mod (+ .cse93 1) 5) 0) (< v_~a4~0_871 0) (<= (+ v_~a4~0_871 86) 0) (<= (div .cse93 5) (+ c_~a4~0 42))))))) (exists ((v_~a4~0_871 Int)) (let ((.cse94 (mod v_~a4~0_871 21))) (let ((.cse96 (* 9 .cse94))) (let ((.cse95 (div (+ .cse96 (- 621)) 10))) (and (not (= 0 .cse94)) (not (= 0 (mod .cse95 5))) (< .cse95 0) (< v_~a4~0_871 0) (<= (+ v_~a4~0_871 86) 0) (<= 0 (+ .cse95 1)) (<= 621 .cse96) (<= (div .cse95 5) (+ c_~a4~0 42))))))) (exists ((v_~a4~0_871 Int)) (let ((.cse98 (mod v_~a4~0_871 21))) (let ((.cse99 (* 9 .cse98))) (let ((.cse97 (div (+ .cse99 (- 621)) 10))) (and (<= 0 .cse97) (not (= 0 .cse98)) (= (mod (+ .cse97 1) 5) 0) (< v_~a4~0_871 0) (<= (+ v_~a4~0_871 86) 0) (<= 621 .cse99) (<= (div .cse97 5) (+ c_~a4~0 43))))))) (exists ((v_~a4~0_871 Int)) (let ((.cse102 (mod v_~a4~0_871 21))) (let ((.cse100 (* 9 .cse102))) (let ((.cse101 (div (+ .cse100 (- 621)) 10))) (and (= 0 (mod (+ .cse100 9) 10)) (<= 0 .cse101) (not (= 0 .cse102)) (< v_~a4~0_871 0) (<= (+ v_~a4~0_871 86) 0) (<= 0 (+ .cse101 1)) (<= (div .cse101 5) (+ c_~a4~0 43))))))) (exists ((v_~a4~0_871 Int)) (let ((.cse104 (mod v_~a4~0_871 21))) (let ((.cse105 (* 9 .cse104))) (let ((.cse103 (div (+ .cse105 (- 621)) 10))) (and (= 0 (mod .cse103 5)) (not (= 0 .cse104)) (< v_~a4~0_871 0) (<= (+ v_~a4~0_871 86) 0) (<= 0 (+ .cse103 1)) (<= 621 .cse105) (<= (div .cse103 5) (+ c_~a4~0 43))))))) (exists ((v_~a4~0_871 Int)) (let ((.cse107 (* 9 (mod v_~a4~0_871 21)))) (let ((.cse106 (div (+ .cse107 (- 432)) 10))) (let ((.cse108 (+ .cse106 1))) (and (<= (div .cse106 5) (+ c_~a4~0 43)) (= (mod (+ .cse107 8) 10) 0) (<= 0 v_~a4~0_871) (= 0 (mod .cse106 5)) (< .cse108 0) (not (= 0 (mod .cse108 5))) (<= (+ v_~a4~0_871 86) 0)))))) (exists ((v_~a4~0_871 Int)) (let ((.cse110 (* 9 (mod v_~a4~0_871 21)))) (let ((.cse109 (div (+ .cse110 (- 432)) 10))) (and (<= (div .cse109 5) (+ c_~a4~0 43)) (= (mod (+ .cse110 8) 10) 0) (<= 0 v_~a4~0_871) (= 0 (mod .cse109 5)) (= 0 (mod (+ .cse109 1) 5)) (<= (+ v_~a4~0_871 86) 0))))) (exists ((v_~a4~0_871 Int)) (let ((.cse113 (* 9 (mod v_~a4~0_871 21)))) (let ((.cse111 (div (+ .cse113 (- 432)) 10))) (let ((.cse112 (+ .cse111 1))) (and (<= (div .cse111 5) (+ c_~a4~0 43)) (<= 0 v_~a4~0_871) (<= 0 .cse111) (< .cse112 0) (<= 432 .cse113) (not (= 0 (mod .cse112 5))) (<= (+ v_~a4~0_871 86) 0)))))) (exists ((v_~a4~0_871 Int)) (let ((.cse116 (mod v_~a4~0_871 21))) (let ((.cse115 (* 9 .cse116))) (let ((.cse117 (div (+ .cse115 (- 621)) 10))) (let ((.cse114 (+ .cse117 1))) (and (<= (div .cse114 5) (+ c_~a4~0 43)) (< .cse115 621) (not (= 0 .cse116)) (not (= 0 (mod .cse117 5))) (< .cse117 0) (not (= 0 (mod (+ .cse115 9) 10))) (= (mod .cse114 5) 0) (< v_~a4~0_871 0) (<= (+ v_~a4~0_871 86) 0))))))) (exists ((v_~a4~0_871 Int)) (let ((.cse119 (mod v_~a4~0_871 21))) (let ((.cse120 (* 9 .cse119))) (let ((.cse118 (div (+ .cse120 (- 621)) 10))) (and (<= 0 .cse118) (not (= 0 .cse119)) (< v_~a4~0_871 0) (<= (+ v_~a4~0_871 86) 0) (<= 0 (+ .cse118 1)) (<= 621 .cse120) (<= (div .cse118 5) (+ c_~a4~0 43))))))) (exists ((v_~a4~0_871 Int)) (let ((.cse122 (* 9 (mod v_~a4~0_871 21)))) (let ((.cse121 (div (+ .cse122 (- 432)) 10))) (and (< .cse121 0) (<= 0 v_~a4~0_871) (<= 432 .cse122) (<= (+ v_~a4~0_871 86) 0) (<= (div .cse121 5) (+ c_~a4~0 42)) (<= 0 (+ .cse121 1)) (not (= 0 (mod .cse121 5))))))) (exists ((v_~a4~0_871 Int)) (let ((.cse125 (* 9 (mod v_~a4~0_871 21)))) (let ((.cse123 (div (+ .cse125 (- 432)) 10))) (let ((.cse124 (+ .cse123 1))) (and (< .cse123 0) (<= 0 v_~a4~0_871) (< .cse124 0) (<= 432 .cse125) (not (= 0 (mod .cse124 5))) (<= (+ v_~a4~0_871 86) 0) (<= (div .cse123 5) (+ c_~a4~0 42)) (not (= 0 (mod .cse123 5)))))))) (exists ((v_~a4~0_871 Int)) (let ((.cse128 (mod v_~a4~0_871 21))) (let ((.cse127 (* 9 .cse128))) (let ((.cse126 (div (+ .cse127 (- 432)) 10))) (and (< .cse126 0) (= (mod (+ .cse127 8) 10) 0) (= 0 .cse128) (= 0 (mod (+ .cse126 1) 5)) (<= (+ v_~a4~0_871 86) 0) (<= (div .cse126 5) (+ c_~a4~0 42)) (not (= 0 (mod .cse126 5)))))))) (exists ((v_~a4~0_871 Int)) (let ((.cse130 (* 9 (mod v_~a4~0_871 21)))) (let ((.cse129 (div (+ .cse130 (- 432)) 10))) (let ((.cse131 (+ .cse129 1))) (and (< .cse129 0) (not (= (mod (+ .cse130 8) 10) 0)) (< .cse130 432) (<= 0 v_~a4~0_871) (<= (div .cse131 5) (+ c_~a4~0 43)) (<= (+ v_~a4~0_871 86) 0) (<= 0 .cse131) (not (= 0 (mod .cse129 5)))))))) (exists ((v_~a4~0_871 Int)) (let ((.cse134 (mod v_~a4~0_871 21))) (let ((.cse133 (* 9 .cse134))) (let ((.cse132 (div (+ .cse133 (- 432)) 10))) (and (< .cse132 0) (<= 432 .cse133) (= 0 .cse134) (<= (+ v_~a4~0_871 86) 0) (<= (div .cse132 5) (+ c_~a4~0 42)) (<= 0 (+ .cse132 1)) (not (= 0 (mod .cse132 5)))))))) (exists ((v_~a4~0_871 Int)) (let ((.cse138 (mod v_~a4~0_871 21))) (let ((.cse135 (* 9 .cse138))) (let ((.cse136 (div (+ .cse135 (- 621)) 10))) (let ((.cse137 (+ .cse136 1))) (and (= 0 (mod (+ .cse135 9) 10)) (<= 0 .cse136) (not (= (mod .cse137 5) 0)) (not (= 0 .cse138)) (< .cse137 0) (< v_~a4~0_871 0) (<= (+ v_~a4~0_871 86) 0) (<= (div .cse136 5) (+ c_~a4~0 43)))))))) (exists ((v_~a4~0_871 Int)) (let ((.cse140 (mod v_~a4~0_871 21))) (let ((.cse142 (* 9 .cse140))) (let ((.cse141 (div (+ .cse142 (- 621)) 10))) (let ((.cse139 (+ .cse141 1))) (and (not (= (mod .cse139 5) 0)) (not (= 0 .cse140)) (< .cse139 0) (not (= 0 (mod .cse141 5))) (< .cse141 0) (< v_~a4~0_871 0) (<= (+ v_~a4~0_871 86) 0) (<= 621 .cse142) (<= (div .cse141 5) (+ c_~a4~0 42)))))))) (exists ((v_~a4~0_871 Int)) (let ((.cse144 (mod v_~a4~0_871 21))) (let ((.cse143 (* 9 .cse144))) (let ((.cse145 (div (+ .cse143 (- 621)) 10))) (and (= 0 (mod (+ .cse143 9) 10)) (not (= 0 .cse144)) (not (= 0 (mod .cse145 5))) (< .cse145 0) (< v_~a4~0_871 0) (<= (+ v_~a4~0_871 86) 0) (<= 0 (+ .cse145 1)) (<= (div .cse145 5) (+ c_~a4~0 42))))))) (exists ((v_~a4~0_871 Int)) (let ((.cse148 (mod v_~a4~0_871 21))) (let ((.cse149 (* 9 .cse148))) (let ((.cse146 (div (+ .cse149 (- 621)) 10))) (let ((.cse147 (+ .cse146 1))) (and (<= 0 .cse146) (not (= (mod .cse147 5) 0)) (not (= 0 .cse148)) (< .cse147 0) (< v_~a4~0_871 0) (<= (+ v_~a4~0_871 86) 0) (<= 621 .cse149) (<= (div .cse146 5) (+ c_~a4~0 43)))))))) (exists ((v_~a4~0_871 Int)) (let ((.cse151 (* 9 (mod v_~a4~0_871 21)))) (let ((.cse150 (div (+ .cse151 (- 432)) 10))) (let ((.cse152 (+ .cse150 1))) (and (< .cse150 0) (not (= (mod (+ .cse151 8) 10) 0)) (< .cse151 432) (<= 0 v_~a4~0_871) (<= (div .cse152 5) (+ c_~a4~0 43)) (= 0 (mod .cse152 5)) (<= (+ v_~a4~0_871 86) 0) (not (= 0 (mod .cse150 5)))))))) (exists ((v_~a4~0_871 Int)) (let ((.cse155 (mod v_~a4~0_871 21))) (let ((.cse153 (* 9 .cse155))) (let ((.cse156 (div (+ .cse153 (- 621)) 10))) (let ((.cse154 (+ .cse156 1))) (and (= 0 (mod (+ .cse153 9) 10)) (not (= (mod .cse154 5) 0)) (not (= 0 .cse155)) (< .cse154 0) (not (= 0 (mod .cse156 5))) (< .cse156 0) (< v_~a4~0_871 0) (<= (+ v_~a4~0_871 86) 0) (<= (div .cse156 5) (+ c_~a4~0 42)))))))) (exists ((v_~a4~0_871 Int)) (let ((.cse159 (mod v_~a4~0_871 21))) (let ((.cse158 (* 9 .cse159))) (let ((.cse157 (div (+ .cse158 (- 432)) 10))) (and (<= (div .cse157 5) (+ c_~a4~0 43)) (<= 0 .cse157) (<= 432 .cse158) (= 0 .cse159) (<= (+ v_~a4~0_871 86) 0) (<= 0 (+ .cse157 1))))))) (exists ((v_~a4~0_871 Int)) (let ((.cse161 (* 9 (mod v_~a4~0_871 21)))) (let ((.cse160 (div (+ .cse161 (- 432)) 10))) (and (<= (div .cse160 5) (+ c_~a4~0 43)) (= (mod (+ .cse161 8) 10) 0) (<= 0 v_~a4~0_871) (= 0 (mod .cse160 5)) (<= (+ v_~a4~0_871 86) 0) (<= 0 (+ .cse160 1)))))) (exists ((v_~a4~0_871 Int)) (let ((.cse165 (mod v_~a4~0_871 21))) (let ((.cse163 (* 9 .cse165))) (let ((.cse162 (div (+ .cse163 (- 432)) 10))) (let ((.cse164 (+ .cse162 1))) (and (< .cse162 0) (not (= (mod (+ .cse163 8) 10) 0)) (< .cse163 432) (<= (div .cse164 5) (+ c_~a4~0 43)) (= 0 .cse165) (= 0 (mod .cse164 5)) (<= (+ v_~a4~0_871 86) 0) (not (= 0 (mod .cse162 5))))))))) (exists ((v_~a4~0_871 Int)) (let ((.cse168 (mod v_~a4~0_871 21))) (let ((.cse167 (* 9 .cse168))) (let ((.cse166 (div (+ .cse167 (- 432)) 10))) (and (<= (div .cse166 5) (+ c_~a4~0 43)) (= (mod (+ .cse167 8) 10) 0) (= 0 (mod .cse166 5)) (= 0 .cse168) (= 0 (mod (+ .cse166 1) 5)) (<= (+ v_~a4~0_871 86) 0)))))) (exists ((v_~a4~0_871 Int)) (let ((.cse171 (mod v_~a4~0_871 21))) (let ((.cse169 (* 9 .cse171))) (let ((.cse172 (div (+ .cse169 (- 621)) 10))) (let ((.cse170 (+ .cse172 1))) (and (< .cse169 621) (not (= (mod .cse170 5) 0)) (not (= 0 .cse171)) (<= (div .cse170 5) (+ c_~a4~0 42)) (< .cse170 0) (not (= 0 (mod .cse172 5))) (< .cse172 0) (not (= 0 (mod (+ .cse169 9) 10))) (< v_~a4~0_871 0) (<= (+ v_~a4~0_871 86) 0))))))) (exists ((v_~a4~0_871 Int)) (let ((.cse176 (mod v_~a4~0_871 21))) (let ((.cse175 (* 9 .cse176))) (let ((.cse174 (div (+ .cse175 (- 621)) 10))) (let ((.cse173 (+ .cse174 1))) (and (<= (div .cse173 5) (+ c_~a4~0 43)) (= 0 (mod .cse174 5)) (< .cse175 621) (not (= 0 .cse176)) (not (= 0 (mod (+ .cse175 9) 10))) (< v_~a4~0_871 0) (<= (+ v_~a4~0_871 86) 0) (<= 0 .cse173))))))) (exists ((v_~a4~0_871 Int)) (let ((.cse180 (mod v_~a4~0_871 21))) (let ((.cse178 (* 9 .cse180))) (let ((.cse177 (div (+ .cse178 (- 621)) 10))) (let ((.cse179 (+ .cse177 1))) (and (<= 0 .cse177) (< .cse178 621) (not (= (mod .cse179 5) 0)) (not (= 0 .cse180)) (<= (div .cse179 5) (+ c_~a4~0 42)) (< .cse179 0) (not (= 0 (mod (+ .cse178 9) 10))) (< v_~a4~0_871 0) (<= (+ v_~a4~0_871 86) 0))))))) (exists ((v_~a4~0_871 Int)) (let ((.cse183 (mod v_~a4~0_871 21))) (let ((.cse182 (* 9 .cse183))) (let ((.cse181 (div (+ .cse182 (- 432)) 10))) (and (< .cse181 0) (<= 432 .cse182) (= 0 .cse183) (= 0 (mod (+ .cse181 1) 5)) (<= (+ v_~a4~0_871 86) 0) (<= (div .cse181 5) (+ c_~a4~0 42)) (not (= 0 (mod .cse181 5)))))))) (exists ((v_~a4~0_871 Int)) (let ((.cse184 (* 9 (mod v_~a4~0_871 21)))) (let ((.cse186 (div (+ .cse184 (- 432)) 10))) (let ((.cse185 (+ .cse186 1))) (and (not (= (mod (+ .cse184 8) 10) 0)) (<= (div .cse185 5) (+ c_~a4~0 42)) (< .cse184 432) (<= 0 v_~a4~0_871) (= 0 (mod .cse186 5)) (< .cse185 0) (not (= 0 (mod .cse185 5))) (<= (+ v_~a4~0_871 86) 0)))))) (exists ((v_~a4~0_871 Int)) (let ((.cse189 (mod v_~a4~0_871 21))) (let ((.cse187 (* 9 .cse189))) (let ((.cse188 (div (+ .cse187 (- 621)) 10))) (and (= 0 (mod (+ .cse187 9) 10)) (= 0 (mod .cse188 5)) (not (= 0 .cse189)) (< v_~a4~0_871 0) (<= (+ v_~a4~0_871 86) 0) (<= 0 (+ .cse188 1)) (<= (div .cse188 5) (+ c_~a4~0 43))))))) (exists ((v_~a4~0_871 Int)) (let ((.cse191 (* 9 (mod v_~a4~0_871 21)))) (let ((.cse190 (div (+ .cse191 (- 432)) 10))) (and (<= (div .cse190 5) (+ c_~a4~0 43)) (<= 0 v_~a4~0_871) (<= 0 .cse190) (<= 432 .cse191) (<= (+ v_~a4~0_871 86) 0) (<= 0 (+ .cse190 1)))))) (exists ((v_~a4~0_871 Int)) (let ((.cse195 (mod v_~a4~0_871 21))) (let ((.cse192 (* 9 .cse195))) (let ((.cse194 (div (+ .cse192 (- 432)) 10))) (let ((.cse193 (+ .cse194 1))) (and (not (= (mod (+ .cse192 8) 10) 0)) (<= (div .cse193 5) (+ c_~a4~0 42)) (< .cse192 432) (<= 0 .cse194) (< .cse193 0) (= 0 .cse195) (not (= 0 (mod .cse193 5))) (<= (+ v_~a4~0_871 86) 0))))))) (exists ((v_~a4~0_871 Int)) (let ((.cse198 (mod v_~a4~0_871 21))) (let ((.cse199 (* 9 .cse198))) (let ((.cse196 (div (+ .cse199 (- 621)) 10))) (let ((.cse197 (+ .cse196 1))) (and (= 0 (mod .cse196 5)) (not (= (mod .cse197 5) 0)) (not (= 0 .cse198)) (< .cse197 0) (< v_~a4~0_871 0) (<= (+ v_~a4~0_871 86) 0) (<= 621 .cse199) (<= (div .cse196 5) (+ c_~a4~0 43)))))))) (exists ((v_~a4~0_871 Int)) (let ((.cse200 (mod v_~a4~0_871 21))) (let ((.cse202 (* 9 .cse200))) (let ((.cse201 (div (+ .cse202 (- 621)) 10))) (and (not (= 0 .cse200)) (not (= 0 (mod .cse201 5))) (< .cse201 0) (= (mod (+ .cse201 1) 5) 0) (< v_~a4~0_871 0) (<= (+ v_~a4~0_871 86) 0) (<= 621 .cse202) (<= (div .cse201 5) (+ c_~a4~0 42))))))) (exists ((v_~a4~0_871 Int)) (let ((.cse205 (mod v_~a4~0_871 21))) (let ((.cse204 (* 9 .cse205))) (let ((.cse203 (div (+ .cse204 (- 432)) 10))) (and (<= (div .cse203 5) (+ c_~a4~0 43)) (= (mod (+ .cse204 8) 10) 0) (<= 0 .cse203) (= 0 .cse205) (<= (+ v_~a4~0_871 86) 0) (<= 0 (+ .cse203 1))))))) (exists ((v_~a4~0_871 Int)) (let ((.cse208 (mod v_~a4~0_871 21))) (let ((.cse207 (* 9 .cse208))) (let ((.cse206 (div (+ .cse207 (- 432)) 10))) (and (<= (div .cse206 5) (+ c_~a4~0 43)) (= 0 (mod .cse206 5)) (<= 432 .cse207) (= 0 .cse208) (<= (+ v_~a4~0_871 86) 0) (<= 0 (+ .cse206 1))))))) (exists ((v_~a4~0_871 Int)) (let ((.cse210 (* 9 (mod v_~a4~0_871 21)))) (let ((.cse209 (div (+ .cse210 (- 432)) 10))) (and (< .cse209 0) (= (mod (+ .cse210 8) 10) 0) (<= 0 v_~a4~0_871) (= 0 (mod (+ .cse209 1) 5)) (<= (+ v_~a4~0_871 86) 0) (<= (div .cse209 5) (+ c_~a4~0 42)) (not (= 0 (mod .cse209 5))))))) (exists ((v_~a4~0_871 Int)) (let ((.cse213 (mod v_~a4~0_871 21))) (let ((.cse211 (* 9 .cse213))) (let ((.cse212 (div (+ .cse211 (- 621)) 10))) (and (= 0 (mod (+ .cse211 9) 10)) (= 0 (mod .cse212 5)) (not (= 0 .cse213)) (= (mod (+ .cse212 1) 5) 0) (< v_~a4~0_871 0) (<= (+ v_~a4~0_871 86) 0) (<= (div .cse212 5) (+ c_~a4~0 43))))))) (exists ((v_~a4~0_871 Int)) (let ((.cse214 (* 9 (mod v_~a4~0_871 21)))) (let ((.cse215 (div (+ .cse214 (- 432)) 10))) (let ((.cse216 (+ .cse215 1))) (and (not (= (mod (+ .cse214 8) 10) 0)) (< .cse214 432) (<= 0 v_~a4~0_871) (<= 0 .cse215) (<= (div .cse216 5) (+ c_~a4~0 43)) (<= (+ v_~a4~0_871 86) 0) (<= 0 .cse216)))))) (exists ((v_~a4~0_871 Int)) (let ((.cse220 (mod v_~a4~0_871 21))) (let ((.cse219 (* 9 .cse220))) (let ((.cse217 (div (+ .cse219 (- 432)) 10))) (let ((.cse218 (+ .cse217 1))) (and (<= (div .cse217 5) (+ c_~a4~0 43)) (<= 0 .cse217) (< .cse218 0) (<= 432 .cse219) (= 0 .cse220) (not (= 0 (mod .cse218 5))) (<= (+ v_~a4~0_871 86) 0))))))) (exists ((v_~a4~0_871 Int)) (let ((.cse223 (mod v_~a4~0_871 21))) (let ((.cse222 (* 9 .cse223))) (let ((.cse221 (div (+ .cse222 (- 432)) 10))) (and (<= (div .cse221 5) (+ c_~a4~0 43)) (= 0 (mod .cse221 5)) (<= 432 .cse222) (= 0 .cse223) (= 0 (mod (+ .cse221 1) 5)) (<= (+ v_~a4~0_871 86) 0)))))) (exists ((v_~a4~0_871 Int)) (let ((.cse227 (mod v_~a4~0_871 21))) (let ((.cse224 (* 9 .cse227))) (let ((.cse225 (div (+ .cse224 (- 432)) 10))) (let ((.cse226 (+ .cse225 1))) (and (not (= (mod (+ .cse224 8) 10) 0)) (< .cse224 432) (<= 0 .cse225) (<= (div .cse226 5) (+ c_~a4~0 43)) (= 0 .cse227) (<= (+ v_~a4~0_871 86) 0) (<= 0 .cse226))))))) (exists ((v_~a4~0_871 Int)) (let ((.cse231 (mod v_~a4~0_871 21))) (let ((.cse230 (* 9 .cse231))) (let ((.cse229 (div (+ .cse230 (- 621)) 10))) (let ((.cse228 (+ .cse229 1))) (and (<= (div .cse228 5) (+ c_~a4~0 43)) (<= 0 .cse229) (< .cse230 621) (not (= 0 .cse231)) (not (= 0 (mod (+ .cse230 9) 10))) (< v_~a4~0_871 0) (<= (+ v_~a4~0_871 86) 0) (<= 0 .cse228))))))) (exists ((v_~a4~0_871 Int)) (let ((.cse233 (* 9 (mod v_~a4~0_871 21)))) (let ((.cse232 (div (+ .cse233 (- 432)) 10))) (and (<= (div .cse232 5) (+ c_~a4~0 43)) (= (mod (+ .cse233 8) 10) 0) (<= 0 v_~a4~0_871) (<= 0 .cse232) (<= (+ v_~a4~0_871 86) 0) (<= 0 (+ .cse232 1)))))) (exists ((v_~a4~0_871 Int)) (let ((.cse237 (mod v_~a4~0_871 21))) (let ((.cse234 (* 9 .cse237))) (let ((.cse235 (div (+ .cse234 (- 432)) 10))) (let ((.cse236 (+ .cse235 1))) (and (not (= (mod (+ .cse234 8) 10) 0)) (< .cse234 432) (= 0 (mod .cse235 5)) (<= (div .cse236 5) (+ c_~a4~0 43)) (= 0 .cse237) (<= (+ v_~a4~0_871 86) 0) (<= 0 .cse236))))))) (exists ((v_~a4~0_871 Int)) (let ((.cse240 (mod v_~a4~0_871 21))) (let ((.cse239 (* 9 .cse240))) (let ((.cse238 (div (+ .cse239 (- 432)) 10))) (and (< .cse238 0) (= (mod (+ .cse239 8) 10) 0) (= 0 .cse240) (<= (+ v_~a4~0_871 86) 0) (<= (div .cse238 5) (+ c_~a4~0 42)) (<= 0 (+ .cse238 1)) (not (= 0 (mod .cse238 5)))))))) (exists ((v_~a4~0_871 Int)) (let ((.cse244 (mod v_~a4~0_871 21))) (let ((.cse242 (* 9 .cse244))) (let ((.cse241 (div (+ .cse242 (- 432)) 10))) (let ((.cse243 (+ .cse241 1))) (and (< .cse241 0) (not (= (mod (+ .cse242 8) 10) 0)) (< .cse242 432) (<= (div .cse243 5) (+ c_~a4~0 43)) (= 0 .cse244) (<= (+ v_~a4~0_871 86) 0) (<= 0 .cse243) (not (= 0 (mod .cse241 5))))))))) (exists ((v_~a4~0_871 Int)) (let ((.cse246 (* 9 (mod v_~a4~0_871 21)))) (let ((.cse245 (div (+ .cse246 (- 432)) 10))) (and (<= (div .cse245 5) (+ c_~a4~0 43)) (<= 0 v_~a4~0_871) (<= 0 .cse245) (<= 432 .cse246) (= 0 (mod (+ .cse245 1) 5)) (<= (+ v_~a4~0_871 86) 0))))) (exists ((v_~a4~0_871 Int)) (let ((.cse249 (mod v_~a4~0_871 21))) (let ((.cse248 (* 9 .cse249))) (let ((.cse250 (div (+ .cse248 (- 621)) 10))) (let ((.cse247 (+ .cse250 1))) (and (<= (div .cse247 5) (+ c_~a4~0 43)) (< .cse248 621) (not (= 0 .cse249)) (not (= 0 (mod .cse250 5))) (< .cse250 0) (not (= 0 (mod (+ .cse248 9) 10))) (< v_~a4~0_871 0) (<= (+ v_~a4~0_871 86) 0) (<= 0 .cse247))))))) (exists ((v_~a4~0_871 Int)) (let ((.cse251 (* 9 (mod v_~a4~0_871 21)))) (let ((.cse252 (div (+ .cse251 (- 432)) 10))) (let ((.cse253 (+ .cse252 1))) (and (not (= (mod (+ .cse251 8) 10) 0)) (< .cse251 432) (<= 0 v_~a4~0_871) (= 0 (mod .cse252 5)) (<= (div .cse253 5) (+ c_~a4~0 43)) (= 0 (mod .cse253 5)) (<= (+ v_~a4~0_871 86) 0)))))) (exists ((v_~a4~0_871 Int)) (let ((.cse256 (mod v_~a4~0_871 21))) (let ((.cse255 (* 9 .cse256))) (let ((.cse254 (div (+ .cse255 (- 432)) 10))) (and (<= (div .cse254 5) (+ c_~a4~0 43)) (= (mod (+ .cse255 8) 10) 0) (<= 0 .cse254) (= 0 .cse256) (= 0 (mod (+ .cse254 1) 5)) (<= (+ v_~a4~0_871 86) 0)))))) (exists ((v_~a4~0_871 Int)) (let ((.cse260 (mod v_~a4~0_871 21))) (let ((.cse257 (* 9 .cse260))) (let ((.cse258 (div (+ .cse257 (- 432)) 10))) (let ((.cse259 (+ .cse258 1))) (and (not (= (mod (+ .cse257 8) 10) 0)) (< .cse257 432) (= 0 (mod .cse258 5)) (<= (div .cse259 5) (+ c_~a4~0 43)) (= 0 .cse260) (= 0 (mod .cse259 5)) (<= (+ v_~a4~0_871 86) 0)))))))) (exists ((v_prenex_36 Int)) (let ((.cse264 (mod v_prenex_36 21))) (let ((.cse261 (* 9 .cse264))) (let ((.cse262 (div (+ .cse261 (- 621)) 10))) (let ((.cse263 (+ .cse262 1))) (and (< .cse261 621) (<= (+ v_prenex_36 86) 0) (not (= 0 (mod .cse262 5))) (< .cse262 0) (< v_prenex_36 0) (<= (div .cse263 5) (+ c_~a4~0 43)) (not (= 0 .cse264)) (= (mod .cse263 5) 0) (not (= 0 (mod (+ .cse261 9) 10)))))))))))
(check-sat)
(exit)
